
Log started (V20.1.0.0) Fri Aug 19 23:56:16 2022


Problem 'pp.lp' read.
Read time = 0.00 sec. (0.00 ticks)
Version identifier: 20.1.0.0 | 2020-11-10 | 9bedb6d68
Tried aggregator 1 time.
No LP presolve or aggregator reductions.
Presolve time = 0.00 sec. (0.00 ticks)

Iteration log . . .
Iteration:     1   Dual objective     =            46.363636

Dual simplex - Optimal:  Objective =  4.6363636364e+01
Solution time =    0.00 sec.  Iterations = 1 (0)
Deterministic time = 0.00 ticks  (3.94 ticks/sec)


Variable Name           Solution Value
x3                            0.909091
All other variables matching '*' are 0.

Log started (V20.1.0.0) Sat Aug 20 00:12:34 2022


Problem 'pp.lp' read.
Read time = 0.00 sec. (0.00 ticks)
Version identifier: 20.1.0.0 | 2020-11-10 | 9bedb6d68
Tried aggregator 1 time.
No LP presolve or aggregator reductions.
Presolve time = 0.02 sec. (0.00 ticks)

Iteration log . . .
Iteration:     1   Dual objective     =           250.000000

Dual simplex - Optimal:  Objective =  2.5000000000e+02
Solution time =    0.02 sec.  Iterations = 1 (0)
Deterministic time = 0.00 ticks  (0.26 ticks/sec)


Variable Name           Solution Value
x1                            5.000000
All other variables matching '*' are 0.

Log started (V20.1.0.0) Sat Aug 20 00:24:01 2022


Problem 'pd.lp' read.
Read time = 0.00 sec. (0.00 ticks)
Version identifier: 20.1.0.0 | 2020-11-10 | 9bedb6d68
Tried aggregator 1 time.
No LP presolve or aggregator reductions.
Presolve time = 0.00 sec. (0.00 ticks)

Iteration log . . .
Iteration:     1   Scaled dual infeas =             0.000000

Dual simplex - Optimal:  Objective =  2.5000000000e+02
Solution time =    0.00 sec.  Iterations = 1 (1)
Deterministic time = 0.00 ticks  (4.25 ticks/sec)


Log started (V20.1.0.0) Sat Aug 20 01:08:05 2022


Problem 'pp.lp' read.
Read time = 0.02 sec. (0.00 ticks)
Version identifier: 20.1.0.0 | 2020-11-10 | 9bedb6d68
CPLEX Error  5002: 'c3_1' is not convex.
Presolve time = 0.00 sec. (0.00 ticks)

Error termination, CPLEX Error  5002.
Solution time =    0.02 sec.
Deterministic time = 0.00 ticks  (0.03 ticks/sec)

No solution exists.

Problem 'pp.lp' read.
Read time = 0.00 sec. (0.00 ticks)
Version identifier: 20.1.0.0 | 2020-11-10 | 9bedb6d68
CPLEX Error  5002: 'c3_1' is not convex.
Presolve time = 0.00 sec. (0.00 ticks)

Error termination, CPLEX Error  5002.
Solution time =    0.00 sec.
Deterministic time = 0.00 ticks  (0.49 ticks/sec)


Log started (V20.1.0.0) Sat Aug 20 01:09:54 2022


Problem 'pp.lp' read.
Read time = 0.00 sec. (0.00 ticks)
Version identifier: 20.1.0.0 | 2020-11-10 | 9bedb6d68
CPLEX Error  5002: 'c3_1' is not convex.
Presolve time = 0.00 sec. (0.00 ticks)

Error termination, CPLEX Error  5002.
Solution time =    0.00 sec.
Deterministic time = 0.00 ticks  (0.49 ticks/sec)


Log started (V20.1.0.0) Sat Aug 20 01:11:02 2022


Problem 'pd.lp' read.
Read time = 0.00 sec. (0.00 ticks)
Version identifier: 20.1.0.0 | 2020-11-10 | 9bedb6d68
Tried aggregator 1 time.
No LP presolve or aggregator reductions.
Presolve time = 0.00 sec. (0.00 ticks)

Iteration log . . .
Iteration:     1   Scaled dual infeas =             0.000000

Dual simplex - Optimal:  Objective =  2.5000000000e+02
Solution time =    0.00 sec.  Iterations = 1 (1)
Deterministic time = 0.00 ticks  (4.25 ticks/sec)


Variable Name           Solution Value
w2                            5.000000
All other variables matching '*' are 0.

Log started (V20.1.0.0) Sat Aug 20 01:11:58 2022


Problem 'pp.lp' read.
Read time = 0.00 sec. (0.00 ticks)
Version identifier: 20.1.0.0 | 2020-11-10 | 9bedb6d68
Tried aggregator 1 time.
LP Presolve eliminated 0 rows and 1 columns.
Reduced LP has 3 rows, 3 columns, and 8 nonzeros.
Presolve time = 0.00 sec. (0.00 ticks)

Iteration log . . .
Iteration:     1   Dual objective     =           200.000000

Dual simplex - Optimal:  Objective =  2.0500000000e+02
Solution time =    0.00 sec.  Iterations = 2 (0)
Deterministic time = 0.01 ticks  (6.76 ticks/sec)


Variable Name           Solution Value
x1                            0.500000
x4                            4.500000
All other variables matching '*' are 0.
